10  5
  0  15  1  85  2  51  3  96  4  55
  0  46  1  42  2  55  3  20  4  72
  0  61  1  90  2  97  3  75  4  96
  0  32  1  13  2  31  3  32  4  34
  0  32  1  9  2  6  3  1  4  34
  0  59  1  29  2  63  3  33  4  50
  0  68  1  65  2  62  3  81  4  11
  0  47  1  32  2  24  3  48  4  39
  0  37  1  53  2  48  3  95  4  79
  0  85  1  13  2  36  3  11  4  23
